
Gurobi 7.0.2 (linux64, Python) logging started Sat Aug 17 14:39:06 2019


Gurobi 7.0.2 (linux64, Python) logging started Sat Aug 17 14:39:07 2019


Gurobi 7.0.2 (linux64, Python) logging started Sat Aug 17 14:39:07 2019


Gurobi 7.0.2 (linux64, Python) logging started Sat Aug 17 14:39:07 2019


Gurobi 7.0.2 (linux64, Python) logging started Sat Aug 17 14:39:07 2019


Gurobi 7.0.2 (linux64, Python) logging started Sat Aug 17 14:39:07 2019

